Traveling Salesman Problem/TSP_generados/Aleatorio1620390926_9.tsp
NAME: Aleatorio1620390926_9.tsp
COMMENT: Randomly generated scenario
TYPE: TSP
DIMENSION: 9
EDGE_WEIGHT_TYPE: ATT
NODE_COORD_SECTION
1 31.22 7.24
2 36.5 24.95
3 36.51 11.69
4 42.91 26.63
5 14.68 15.42
6 24.59 39.64
7 33.09 33.79
8 43.61 33.52
9 18.72 40.78
