Traveling Salesman Problem/TSP_generados/Aleatorio1620390926_9.opt.tour
NAME: Aleatorio1620390926_9.opt.tour
COMMENT: Optimal solution for Aleatorio1620390926_9 (104.67843623852673)
TYPE: TOUR
DIMENSION: 9
TOUR_SECTION
1 5 9 6 7 8 4 2 3
-1
EOF
